(set-logic ALL)
(set-option :produce-models true)
(declare-sort BoundSet 0)
(declare-sort UnboundSet 0)
(declare-fun HasBackpack (BoundSet) Bool)
(declare-fun IsAtTable (BoundSet) Bool)
(assert (not (=> (exists ((b BoundSet)) (and (HasBackpack b) (IsAtTable b))) (exists ((c BoundSet)) (IsAtTable c)))))
(check-sat)
(get-model)